Route #1: 91 14 2 9 47 16 51 118
Route #2: 129 116 105 41 34 60 95
Route #3: 89 113 25 59 96 18 73 39 58
Route #4: 13 63 15 81 84 107 70 4 27 22 55 126 20 67 44 8 30 68 7 121 5 97 6 108
Route #5: 40 52 101 131 114 11 122 100
Route #6: 90 66 53 77 23 98 75 28 65 42 93 94 102 88 37 24
Route #7: 31 92 1 69 49 117 64 48 127
Route #8: 112 79 43 36 111 120 71 61 29
Route #9: 119 57 104 99 46 21 45 106 85
Route #10: 83 78 17 130 80 115 125 128
Route #11: 76 82 133 12 124 33 86 72 3
Route #12: 132 109 87 74 26 35 50 38 19
Route #13: 56 123 110 54 32 62 10 103
